CMPL model generation - running

CMPL version: 1.11.0
Authors: Thomas Schleiff, Mike Steglich
Distributed under the GPLv3 

create model instance ...
write model instance ...
CMPL model generation - finished

Solver - running


Welcome to IBM(R) ILOG(R) CPLEX(R) Interactive Optimizer 12.7.1.0
  with Simplex, Mixed Integer & Barrier Optimizers
5725-A06 5725-A29 5724-Y48 5724-Y49 5724-Y54 5724-Y55 5655-Y21
Copyright IBM Corp. 1988, 2017.  All Rights Reserved.

Type 'help' for a list of available commands.
Type 'help' followed by a command name for more
information on commands.

CPLEX> Specified objective sense: MINIMIZE
Selected objective  name:  line[1]
Selected RHS        name:  RHS
Selected bound      name:  BOUND
Problem '/tmp/cmpl.T24336.mps' read.
Read time = 0.06 sec. (10.13 ticks)
CPLEX> CPXPARAM_Read_APIEncoding                        "UTF-8"
Tried aggregator 3 times.
MIP Presolve eliminated 23937 rows and 37451 columns.
MIP Presolve modified 425 coefficients.
Aggregator did 817 substitutions.
Reduced MIP has 3168 rows, 4187 columns, and 12385 nonzeros.
Reduced MIP has 3977 binaries, 0 generals, 0 SOSs, and 0 indicators.
Presolve time = 0.07 sec. (52.17 ticks)
Found incumbent of value 1353.629785 after 0.12 sec. (82.82 ticks)
Probing fixed 11 vars, tightened 0 bounds.
Probing time = 0.02 sec. (5.48 ticks)
Tried aggregator 1 time.
MIP Presolve eliminated 0 rows and 11 columns.
MIP Presolve modified 65 coefficients.
Reduced MIP has 3168 rows, 4176 columns, and 12363 nonzeros.
Reduced MIP has 4176 binaries, 0 generals, 0 SOSs, and 0 indicators.
Presolve time = 0.01 sec. (10.38 ticks)
Probing time = 0.01 sec. (2.86 ticks)
Clique table members: 7619.
MIP emphasis: balance optimality and feasibility.
MIP search method: dynamic search.
Parallel mode: none, using 1 thread.
Root relaxation solution time = 0.01 sec. (7.33 ticks)

        Nodes                                         Cuts/
   Node  Left     Objective  IInf  Best Integer    Best Bound    ItCnt     Gap

*     0+    0                         1353.6298      -14.1681           101.05%
      0     0      325.2830     4     1353.6298      325.2830      273   75.97%
*     0+    0                          325.2917      325.2830             0.00%

Root node processing (before b&c):
  Real time             =    0.19 sec. (123.21 ticks)
Sequential b&c:
  Real time             =    0.00 sec. (0.00 ticks)
                          ------------
Total (root+branch&cut) =    0.19 sec. (123.21 ticks)

Solution pool: 2 solutions saved.

MIP - Integer optimal, tolerance (0.0001/1e-06):  Objective =  3.2529167500e+02
Current MIP best bound =  3.2528301150e+02 (gap = 0.0086635, 0.00%)
Solution time =    0.19 sec.  Iterations = 273  Nodes = 0 (1)
Deterministic time = 123.34 ticks  (663.65 ticks/sec)

CPLEX> Incumbent solution written to file '/tmp/cmpl.T24336.gsol'.
CPLEX> 
CMPL: Time used for model generation: 0 seconds
CMPL: Time used for solving the model: 1 seconds


Solution written to ASCII file: results/output_generated_conf_0.6/2017-05-01-5/fair-nonlinear.sol

Solver - finished
